Test: battleship-16-16-unsat.cnf
Options: -no-inverting-opt -activity-nl-freq=1
WARNING: for repeatability, setting FPU to use double precision
============================[ Problem Statistics ]=============================
|                                                                             |
|  Number of symmetries:           17                                         |
|  Number of invertingSyms:         0                                         |
|  Number of variables:           256                                         |
|  Number of clauses:            2176                                         |
|  Parse time:                   0.00 s                                       |
|                                                                             |
============================[ Search Statistics ]==============================
| Conflicts |          ORIGINAL         |          LEARNT          | Progress |
|           |    Vars  Clauses Literals |    Limit  Clauses Lit/Cl |          |
===============================================================================
|       100 |     256     2176     7936 |      797      118     61 |  0.002 % |
|       250 |     256     2176     7936 |      877      270     63 |  0.002 % |
|       475 |     256     2176     7936 |      965      500     63 |  0.002 % |
|       812 |     256     2176     7936 |     1061      876     62 |  0.002 % |
|      1318 |     256     2176     7936 |     1168      823     62 |  0.002 % |
|      2077 |     256     2176     7936 |     1284     1016     58 |  0.002 % |
|      3216 |     256     2176     7936 |     1413      908     55 |  0.002 % |
|      4924 |     256     2176     7936 |     1554     1248     56 |  0.002 % |
|      7486 |     256     2176     7936 |     1710     1345     57 |  0.002 % |
|     11330 |     256     2176     7936 |     1881      993     60 |  0.002 % |
|     17096 |     256     2176     7936 |     2069     1294     60 |  0.002 % |
|     25745 |     256     2176     7936 |     2276     1820     49 |  0.002 % |
|     38719 |     256     2176     7936 |     2504     2209     75 |  0.002 % |
|     58180 |     256     2176     7936 |     2754     1507     60 |  0.002 % |
|     87372 |     256     2176     7936 |     3029     2732     64 |  0.002 % |
|    131161 |     256     2176     7936 |     3332     2850     67 |  0.002 % |
|    196845 |     256     2176     7936 |     3666     3081     64 |  0.002 % |
|    295371 |     256     2176     7936 |     4032     2682     56 |  0.002 % |
|    443160 |     256     2176     7936 |     4436     2373     62 |  0.002 % |
|    664843 |     256     2176     7936 |     4879     2340     58 |  0.002 % |
|    997368 |     256     2176     7936 |     5367     4814     83 |  0.002 % |
|   1496156 |     256     2176     7936 |     5904     4164     63 |  0.002 % |
|   2244338 |     256     2176     7936 |     6494     4673     66 |  0.002 % |
|   3366612 |     256     2176     7936 |     7144     5842     60 |  0.002 % |
===============================================================================
restarts              : 6874
conflicts             : 3892802        (22853 /sec)
symconflicts          : 34219          (201 /sec)
decisions             : 5697248        (0.00 % random) (33446 /sec)
propagations          : 117693235      (690921 /sec)
sympropagations       : 282415         (1658 /sec)
conflict literals     : 262199385      (6.87 % deleted)
literals     : 262199385      (6.87 % deleted)

HEURISTIC USAGES
random                : 0           
activity w/ lookahead : 0           
activity no lookahead : 5697248     
original sp           : 0           
sym count             : 0           

Memory used           : 16.00 MB
CPU time              : 170.343 s

UNSATISFIABLE
